(set-logic HORN)
(set-info :source |
    Benchmark: C_VC
    Output by Princess (http://www.philipp.ruemmer.org/princess.shtml)
|)
(set-info :status sat)
(declare-heap Heap Addr HeapObject
 defObj
 ((HeapObject 0)) (
  (
   (O_Int (getInt Int))
   (O_UInt (getUInt Int))
   (O_Addr (getAddr Addr))
   (defObj)
  )
))
(declare-fun inv_main12 (Heap AddrRange AddrRange AddrRange Int) Bool)
(declare-fun inv_main13 (Heap AddrRange AddrRange AddrRange Int) Bool)
(declare-fun inv_main16 (Heap AddrRange AddrRange AddrRange Int) Bool)
(declare-fun inv_main18 (Heap AddrRange AddrRange AddrRange Int Int) Bool)
(declare-fun inv_main19 (Heap AddrRange AddrRange AddrRange Int Int) Bool)
(declare-fun inv_main23 (Heap AddrRange AddrRange AddrRange Int Int) Bool)
(declare-fun inv_main6 (Heap AddrRange AddrRange AddrRange Int) Bool)
(assert (forall ((var0 Int) (var1 AddrRange) (var2 AddrRange) (var3 AddrRange) (var4 Int) (var5 Heap) (var6 AddrRange) (var7 AddrRange) (var8 Int) (var9 Heap) (var10 AddrRange) (var11 Int) (var12 Heap) (var13 Heap)) (or (not (and (and (and (and (= var13 emptyHeap) (and (= var12 (newBatchHeap (batchAlloc emptyHeap (O_Int var11) 100000))) (= var10 (newAddrRange (batchAlloc emptyHeap (O_Int var11) 100000))))) (and (and (= var9 (newBatchHeap (batchAlloc emptyHeap (O_Int var8) 100000))) (= var7 var10)) (= var6 (newAddrRange (batchAlloc emptyHeap (O_Int var8) 100000))))) (and (and (and (= var5 (newBatchHeap (batchAlloc emptyHeap (O_Int var4) 100000))) (= var3 var7)) (= var2 var6)) (= var1 (newAddrRange (batchAlloc emptyHeap (O_Int var4) 100000))))) (= var0 0))) (inv_main6 var5 var3 var2 var1 var0))))
(assert (forall ((var0 Int) (var1 AddrRange) (var2 AddrRange) (var3 AddrRange) (var4 Int) (var5 Heap) (var6 Int) (var7 AddrRange) (var8 AddrRange) (var9 AddrRange) (var10 Heap)) (or (not (and (inv_main12 var10 var9 var8 var7 var6) (and (and (is-O_Int (read var10 (nthAddrRange var9 var6))) (is-O_Int (read var10 (nthAddrRange var9 var6)))) (and (and (and (and (= var5 (write var10 (nthAddrRange var9 var6) (O_Int var4))) (= var3 var9)) (= var2 var8)) (= var1 var7)) (= var0 var6))))) (inv_main13 var5 var3 var2 var1 var0))))
(assert (forall ((var0 Int) (var1 AddrRange) (var2 AddrRange) (var3 AddrRange) (var4 Heap) (var5 Int) (var6 Int) (var7 Int) (var8 AddrRange) (var9 AddrRange) (var10 AddrRange) (var11 Heap)) (or (not (and (inv_main19 var11 var10 var9 var8 var7 var6) (and (and (<= 0 (+ (+ 100000 (* (- 1) (+ var5 1))) (- 1))) (and (and (is-O_Int (read var11 (nthAddrRange var8 var7))) (is-O_Int (read var11 (nthAddrRange var8 var7)))) (and (and (and (and (= var4 (write var11 (nthAddrRange var8 var7) (O_Int var6))) (= var3 var10)) (= var2 var9)) (= var1 var8)) (= var5 var7)))) (= var0 (+ var5 1))))) (inv_main16 var4 var3 var2 var1 var0))))
(assert (forall ((var0 Int) (var1 AddrRange) (var2 AddrRange) (var3 AddrRange) (var4 Int) (var5 Heap) (var6 Int) (var7 Int) (var8 AddrRange) (var9 AddrRange) (var10 AddrRange) (var11 Heap)) (or (not (and (inv_main13 var11 var10 var9 var8 var7) (and (and (not (<= 0 (+ (+ 100000 (* (- 1) (+ var6 1))) (- 1)))) (and (and (is-O_Int (read var11 (nthAddrRange var9 var7))) (is-O_Int (read var11 (nthAddrRange var9 var7)))) (and (and (and (and (= var5 (write var11 (nthAddrRange var9 var7) (O_Int var4))) (= var3 var10)) (= var2 var9)) (= var1 var8)) (= var6 var7)))) (= var0 0)))) (inv_main16 var5 var3 var2 var1 var0))))
(assert (forall ((var0 Int) (var1 Int) (var2 AddrRange) (var3 AddrRange) (var4 AddrRange) (var5 Heap)) (or (not (and (inv_main16 var5 var4 var3 var2 var1) (and (is-O_Int (read var5 (nthAddrRange var4 var1))) (= var0 (getInt (read var5 (nthAddrRange var4 var1))))))) (inv_main18 var5 var4 var3 var2 var1 var0))))
(assert (forall ((var0 Int) (var1 Int) (var2 Int) (var3 AddrRange) (var4 AddrRange) (var5 AddrRange) (var6 Heap)) (or (not (and (inv_main23 var6 var5 var4 var3 var2 var1) (and (and (<= 0 (+ (+ 100000 (* (- 1) (+ var1 1))) (- 1))) (and (and (is-O_Int (read var6 (nthAddrRange var3 var1))) (is-O_Int (read var6 (nthAddrRange var5 var1)))) (is-O_Int (read var6 (nthAddrRange var4 var1))))) (= var0 (+ var1 1))))) (inv_main23 var6 var5 var4 var3 var2 var0))))
(assert (forall ((var0 Int) (var1 Int) (var2 AddrRange) (var3 AddrRange) (var4 AddrRange) (var5 Heap) (var6 Int) (var7 Int) (var8 Int) (var9 AddrRange) (var10 AddrRange) (var11 AddrRange) (var12 Heap)) (or (not (and (inv_main19 var12 var11 var10 var9 var8 var7) (and (and (and (not (<= 0 (+ (+ 100000 (* (- 1) (+ var6 1))) (- 1)))) (and (and (is-O_Int (read var12 (nthAddrRange var9 var8))) (is-O_Int (read var12 (nthAddrRange var9 var8)))) (and (and (and (and (= var5 (write var12 (nthAddrRange var9 var8) (O_Int var7))) (= var4 var11)) (= var3 var10)) (= var2 var9)) (= var6 var8)))) (= var1 (+ var6 1))) (= var0 0)))) (inv_main23 var5 var4 var3 var2 var1 var0))))
(assert (forall ((var0 Int) (var1 Int) (var2 AddrRange) (var3 AddrRange) (var4 AddrRange) (var5 Heap)) (or (not (and (inv_main6 var5 var4 var3 var2 var1) (= var0 0))) (inv_main12 var5 var4 var3 var2 var0))))
(assert (forall ((var0 Int) (var1 AddrRange) (var2 AddrRange) (var3 AddrRange) (var4 Int) (var5 Heap) (var6 Int) (var7 Int) (var8 AddrRange) (var9 AddrRange) (var10 AddrRange) (var11 Heap)) (or (not (and (inv_main13 var11 var10 var9 var8 var7) (and (and (<= 0 (+ (+ 100000 (* (- 1) (+ var6 1))) (- 1))) (and (and (is-O_Int (read var11 (nthAddrRange var9 var7))) (is-O_Int (read var11 (nthAddrRange var9 var7)))) (and (and (and (and (= var5 (write var11 (nthAddrRange var9 var7) (O_Int var4))) (= var3 var10)) (= var2 var9)) (= var1 var8)) (= var6 var7)))) (= var0 (+ var6 1))))) (inv_main12 var5 var3 var2 var1 var0))))
(assert (forall ((var0 Int) (var1 Int) (var2 Int) (var3 AddrRange) (var4 AddrRange) (var5 AddrRange) (var6 Heap)) (or (not (and (inv_main18 var6 var5 var4 var3 var2 var1) (and (is-O_Int (read var6 (nthAddrRange var4 var2))) (= var0 (+ var1 (* (- 1) (getInt (read var6 (nthAddrRange var4 var2))))))))) (inv_main19 var6 var5 var4 var3 var2 var0))))
(assert (forall ((var0 Int) (var1 AddrRange) (var2 AddrRange) (var3 AddrRange) (var4 Heap)) (not (and (inv_main12 var4 var3 var2 var1 var0) (not (is-O_Int (read var4 (nthAddrRange var3 var0))))))))
(assert (forall ((var0 Int) (var1 AddrRange) (var2 AddrRange) (var3 AddrRange) (var4 Heap)) (not (and (inv_main12 var4 var3 var2 var1 var0) (and (is-O_Int (read var4 (nthAddrRange var3 var0))) (not (within var3 (nthAddrRange var3 var0))))))))
(assert (forall ((var0 Int) (var1 AddrRange) (var2 AddrRange) (var3 AddrRange) (var4 Heap)) (not (and (inv_main12 var4 var3 var2 var1 var0) (and (is-O_Int (read var4 (nthAddrRange var3 var0))) (not (is-O_Int (read var4 (nthAddrRange var3 var0)))))))))
(assert (forall ((var0 Int) (var1 AddrRange) (var2 AddrRange) (var3 AddrRange) (var4 Heap)) (not (and (inv_main13 var4 var3 var2 var1 var0) (not (is-O_Int (read var4 (nthAddrRange var2 var0))))))))
(assert (forall ((var0 Int) (var1 AddrRange) (var2 AddrRange) (var3 AddrRange) (var4 Heap)) (not (and (inv_main13 var4 var3 var2 var1 var0) (and (is-O_Int (read var4 (nthAddrRange var2 var0))) (not (within var2 (nthAddrRange var2 var0))))))))
(assert (forall ((var0 Int) (var1 AddrRange) (var2 AddrRange) (var3 AddrRange) (var4 Heap)) (not (and (inv_main13 var4 var3 var2 var1 var0) (and (is-O_Int (read var4 (nthAddrRange var2 var0))) (not (is-O_Int (read var4 (nthAddrRange var2 var0)))))))))
(assert (forall ((var0 Int) (var1 AddrRange) (var2 AddrRange) (var3 AddrRange) (var4 Heap)) (not (and (inv_main16 var4 var3 var2 var1 var0) (not (is-O_Int (read var4 (nthAddrRange var3 var0))))))))
(assert (forall ((var0 Int) (var1 AddrRange) (var2 AddrRange) (var3 AddrRange) (var4 Heap)) (not (and (inv_main16 var4 var3 var2 var1 var0) (and (is-O_Int (read var4 (nthAddrRange var3 var0))) (not (within var3 (nthAddrRange var3 var0))))))))
(assert (forall ((var0 Int) (var1 Int) (var2 AddrRange) (var3 AddrRange) (var4 AddrRange) (var5 Heap)) (not (and (inv_main18 var5 var4 var3 var2 var1 var0) (not (is-O_Int (read var5 (nthAddrRange var3 var1))))))))
(assert (forall ((var0 Int) (var1 Int) (var2 AddrRange) (var3 AddrRange) (var4 AddrRange) (var5 Heap)) (not (and (inv_main18 var5 var4 var3 var2 var1 var0) (and (is-O_Int (read var5 (nthAddrRange var3 var1))) (not (within var3 (nthAddrRange var3 var1))))))))
(assert (forall ((var0 Int) (var1 Int) (var2 AddrRange) (var3 AddrRange) (var4 AddrRange) (var5 Heap)) (not (and (inv_main19 var5 var4 var3 var2 var1 var0) (not (is-O_Int (read var5 (nthAddrRange var2 var1))))))))
(assert (forall ((var0 Int) (var1 Int) (var2 AddrRange) (var3 AddrRange) (var4 AddrRange) (var5 Heap)) (not (and (inv_main19 var5 var4 var3 var2 var1 var0) (and (is-O_Int (read var5 (nthAddrRange var2 var1))) (not (within var2 (nthAddrRange var2 var1))))))))
(assert (forall ((var0 Int) (var1 Int) (var2 AddrRange) (var3 AddrRange) (var4 AddrRange) (var5 Heap)) (not (and (inv_main19 var5 var4 var3 var2 var1 var0) (and (is-O_Int (read var5 (nthAddrRange var2 var1))) (not (is-O_Int (read var5 (nthAddrRange var2 var1)))))))))
(assert (forall ((var0 Int) (var1 Int) (var2 AddrRange) (var3 AddrRange) (var4 AddrRange) (var5 Heap)) (not (and (inv_main23 var5 var4 var3 var2 var1 var0) (not (is-O_Int (read var5 (nthAddrRange var2 var0))))))))
(assert (forall ((var0 Int) (var1 Int) (var2 AddrRange) (var3 AddrRange) (var4 AddrRange) (var5 Heap)) (not (and (inv_main23 var5 var4 var3 var2 var1 var0) (not (within var2 (nthAddrRange var2 var0)))))))
(assert (forall ((var0 Int) (var1 Int) (var2 AddrRange) (var3 AddrRange) (var4 AddrRange) (var5 Heap)) (not (and (inv_main23 var5 var4 var3 var2 var1 var0) (not (is-O_Int (read var5 (nthAddrRange var4 var0))))))))
(assert (forall ((var0 Int) (var1 Int) (var2 AddrRange) (var3 AddrRange) (var4 AddrRange) (var5 Heap)) (not (and (inv_main23 var5 var4 var3 var2 var1 var0) (not (within var4 (nthAddrRange var4 var0)))))))
(assert (forall ((var0 Int) (var1 Int) (var2 AddrRange) (var3 AddrRange) (var4 AddrRange) (var5 Heap)) (not (and (inv_main23 var5 var4 var3 var2 var1 var0) (not (is-O_Int (read var5 (nthAddrRange var3 var0))))))))
(assert (forall ((var0 Int) (var1 Int) (var2 AddrRange) (var3 AddrRange) (var4 AddrRange) (var5 Heap)) (not (and (inv_main23 var5 var4 var3 var2 var1 var0) (not (within var3 (nthAddrRange var3 var0)))))))
(assert (forall ((var0 Int) (var1 Int) (var2 AddrRange) (var3 AddrRange) (var4 AddrRange) (var5 Heap)) (not (and (inv_main23 var5 var4 var3 var2 var1 var0) (not (is-O_Int (read var5 (nthAddrRange var2 var0))))))))
(assert (forall ((var0 Int) (var1 Int) (var2 AddrRange) (var3 AddrRange) (var4 AddrRange) (var5 Heap)) (not (and (inv_main23 var5 var4 var3 var2 var1 var0) (and (is-O_Int (read var5 (nthAddrRange var2 var0))) (not (within var2 (nthAddrRange var2 var0))))))))
(assert (forall ((var0 Int) (var1 Int) (var2 AddrRange) (var3 AddrRange) (var4 AddrRange) (var5 Heap)) (not (and (inv_main23 var5 var4 var3 var2 var1 var0) (and (is-O_Int (read var5 (nthAddrRange var2 var0))) (not (is-O_Int (read var5 (nthAddrRange var4 var0)))))))))
(assert (forall ((var0 Int) (var1 Int) (var2 AddrRange) (var3 AddrRange) (var4 AddrRange) (var5 Heap)) (not (and (inv_main23 var5 var4 var3 var2 var1 var0) (and (and (is-O_Int (read var5 (nthAddrRange var2 var0))) (is-O_Int (read var5 (nthAddrRange var4 var0)))) (not (within var4 (nthAddrRange var4 var0))))))))
(assert (forall ((var0 Int) (var1 Int) (var2 AddrRange) (var3 AddrRange) (var4 AddrRange) (var5 Heap)) (not (and (inv_main23 var5 var4 var3 var2 var1 var0) (and (and (is-O_Int (read var5 (nthAddrRange var2 var0))) (is-O_Int (read var5 (nthAddrRange var4 var0)))) (not (is-O_Int (read var5 (nthAddrRange var3 var0)))))))))
(assert (forall ((var0 Int) (var1 Int) (var2 AddrRange) (var3 AddrRange) (var4 AddrRange) (var5 Heap)) (not (and (inv_main23 var5 var4 var3 var2 var1 var0) (and (and (and (is-O_Int (read var5 (nthAddrRange var2 var0))) (is-O_Int (read var5 (nthAddrRange var4 var0)))) (is-O_Int (read var5 (nthAddrRange var3 var0)))) (not (within var3 (nthAddrRange var3 var0))))))))
(assert (forall ((var0 Int) (var1 Int) (var2 AddrRange) (var3 AddrRange) (var4 AddrRange) (var5 Heap)) (not (and (inv_main23 var5 var4 var3 var2 var1 var0) (and (and (and (is-O_Int (read var5 (nthAddrRange var2 var0))) (is-O_Int (read var5 (nthAddrRange var4 var0)))) (is-O_Int (read var5 (nthAddrRange var3 var0)))) (not (= (getInt (read var5 (nthAddrRange var2 var0))) (+ (getInt (read var5 (nthAddrRange var4 var0))) (* (- 1) (getInt (read var5 (nthAddrRange var3 var0))))))))))))
(check-sat)
